\ Model RB_Model
\ LP format - for model browsing. Use MPS format to capture full model detail.
Maximize
  12 x[Active_Driver_Node_0,Passive_Rider_Node_0]
   + 11 x[Active_Driver_Node_0,Passive_Rider_Node_1]
   + 10 x[Active_Driver_Node_0,Passive_Rider_Node_2]
   + 9 x[Active_Driver_Node_0,Passive_Rider_Node_3]
   + 8 x[Active_Driver_Node_0,Passive_Rider_Node_4]
   + 7 x[Active_Driver_Node_0,Passive_Rider_Node_5]
   + 6 x[Active_Driver_Node_0,Passive_Rider_Node_6]
   + 5 x[Active_Driver_Node_0,Passive_Rider_Node_7]
   + 4 x[Active_Driver_Node_0,Passive_Rider_Node_8]
   + 3 x[Active_Driver_Node_0,Passive_Rider_Node_9]
   + 11 x[Active_Driver_Node_1,Passive_Rider_Node_0]
   + 12 x[Active_Driver_Node_1,Passive_Rider_Node_1]
   + 11 x[Active_Driver_Node_1,Passive_Rider_Node_2]
   + 10 x[Active_Driver_Node_1,Passive_Rider_Node_3]
   + 9 x[Active_Driver_Node_1,Passive_Rider_Node_4]
   + 8 x[Active_Driver_Node_1,Passive_Rider_Node_5]
   + 7 x[Active_Driver_Node_1,Passive_Rider_Node_6]
   + 6 x[Active_Driver_Node_1,Passive_Rider_Node_7]
   + 5 x[Active_Driver_Node_1,Passive_Rider_Node_8]
   + 4 x[Active_Driver_Node_1,Passive_Rider_Node_9]
   + 10 x[Active_Driver_Node_2,Passive_Rider_Node_0]
   + 11 x[Active_Driver_Node_2,Passive_Rider_Node_1]
   + 12 x[Active_Driver_Node_2,Passive_Rider_Node_2]
   + 11 x[Active_Driver_Node_2,Passive_Rider_Node_3]
   + 10 x[Active_Driver_Node_2,Passive_Rider_Node_4]
   + 9 x[Active_Driver_Node_2,Passive_Rider_Node_5]
   + 8 x[Active_Driver_Node_2,Passive_Rider_Node_6]
   + 7 x[Active_Driver_Node_2,Passive_Rider_Node_7]
   + 6 x[Active_Driver_Node_2,Passive_Rider_Node_8]
   + 5 x[Active_Driver_Node_2,Passive_Rider_Node_9]
   + 9 x[Active_Driver_Node_3,Passive_Rider_Node_0]
   + 10 x[Active_Driver_Node_3,Passive_Rider_Node_1]
   + 11 x[Active_Driver_Node_3,Passive_Rider_Node_2]
   + 12 x[Active_Driver_Node_3,Passive_Rider_Node_3]
   + 11 x[Active_Driver_Node_3,Passive_Rider_Node_4]
   + 10 x[Active_Driver_Node_3,Passive_Rider_Node_5]
   + 9 x[Active_Driver_Node_3,Passive_Rider_Node_6]
   + 8 x[Active_Driver_Node_3,Passive_Rider_Node_7]
   + 7 x[Active_Driver_Node_3,Passive_Rider_Node_8]
   + 6 x[Active_Driver_Node_3,Passive_Rider_Node_9]
   + 8 x[Active_Driver_Node_4,Passive_Rider_Node_0]
   + 9 x[Active_Driver_Node_4,Passive_Rider_Node_1]
   + 10 x[Active_Driver_Node_4,Passive_Rider_Node_2]
   + 11 x[Active_Driver_Node_4,Passive_Rider_Node_3]
   + 12 x[Active_Driver_Node_4,Passive_Rider_Node_4]
   + 11 x[Active_Driver_Node_4,Passive_Rider_Node_5]
   + 10 x[Active_Driver_Node_4,Passive_Rider_Node_6]
   + 9 x[Active_Driver_Node_4,Passive_Rider_Node_7]
   + 8 x[Active_Driver_Node_4,Passive_Rider_Node_8]
   + 7 x[Active_Driver_Node_4,Passive_Rider_Node_9]
   + 7 x[Active_Driver_Node_5,Passive_Rider_Node_0]
   + 8 x[Active_Driver_Node_5,Passive_Rider_Node_1]
   + 9 x[Active_Driver_Node_5,Passive_Rider_Node_2]
   + 10 x[Active_Driver_Node_5,Passive_Rider_Node_3]
   + 11 x[Active_Driver_Node_5,Passive_Rider_Node_4]
   + 12 x[Active_Driver_Node_5,Passive_Rider_Node_5]
   + 11 x[Active_Driver_Node_5,Passive_Rider_Node_6]
   + 10 x[Active_Driver_Node_5,Passive_Rider_Node_7]
   + 9 x[Active_Driver_Node_5,Passive_Rider_Node_8]
   + 8 x[Active_Driver_Node_5,Passive_Rider_Node_9]
   + 6 x[Active_Driver_Node_6,Passive_Rider_Node_0]
   + 7 x[Active_Driver_Node_6,Passive_Rider_Node_1]
   + 8 x[Active_Driver_Node_6,Passive_Rider_Node_2]
   + 9 x[Active_Driver_Node_6,Passive_Rider_Node_3]
   + 10 x[Active_Driver_Node_6,Passive_Rider_Node_4]
   + 11 x[Active_Driver_Node_6,Passive_Rider_Node_5]
   + 12 x[Active_Driver_Node_6,Passive_Rider_Node_6]
   + 11 x[Active_Driver_Node_6,Passive_Rider_Node_7]
   + 10 x[Active_Driver_Node_6,Passive_Rider_Node_8]
   + 9 x[Active_Driver_Node_6,Passive_Rider_Node_9]
   + 5 x[Active_Driver_Node_7,Passive_Rider_Node_0]
   + 6 x[Active_Driver_Node_7,Passive_Rider_Node_1]
   + 7 x[Active_Driver_Node_7,Passive_Rider_Node_2]
   + 8 x[Active_Driver_Node_7,Passive_Rider_Node_3]
   + 9 x[Active_Driver_Node_7,Passive_Rider_Node_4]
   + 10 x[Active_Driver_Node_7,Passive_Rider_Node_5]
   + 11 x[Active_Driver_Node_7,Passive_Rider_Node_6]
   + 12 x[Active_Driver_Node_7,Passive_Rider_Node_7]
   + 11 x[Active_Driver_Node_7,Passive_Rider_Node_8]
   + 10 x[Active_Driver_Node_7,Passive_Rider_Node_9]
   + 4 x[Active_Driver_Node_8,Passive_Rider_Node_0]
   + 5 x[Active_Driver_Node_8,Passive_Rider_Node_1]
   + 6 x[Active_Driver_Node_8,Passive_Rider_Node_2]
   + 7 x[Active_Driver_Node_8,Passive_Rider_Node_3]
   + 8 x[Active_Driver_Node_8,Passive_Rider_Node_4]
   + 9 x[Active_Driver_Node_8,Passive_Rider_Node_5]
   + 10 x[Active_Driver_Node_8,Passive_Rider_Node_6]
   + 11 x[Active_Driver_Node_8,Passive_Rider_Node_7]
   + 12 x[Active_Driver_Node_8,Passive_Rider_Node_8]
   + 11 x[Active_Driver_Node_8,Passive_Rider_Node_9]
   + 3 x[Active_Driver_Node_9,Passive_Rider_Node_0]
   + 4 x[Active_Driver_Node_9,Passive_Rider_Node_1]
   + 5 x[Active_Driver_Node_9,Passive_Rider_Node_2]
   + 6 x[Active_Driver_Node_9,Passive_Rider_Node_3]
   + 7 x[Active_Driver_Node_9,Passive_Rider_Node_4]
   + 8 x[Active_Driver_Node_9,Passive_Rider_Node_5]
   + 9 x[Active_Driver_Node_9,Passive_Rider_Node_6]
   + 10 x[Active_Driver_Node_9,Passive_Rider_Node_7]
   + 11 x[Active_Driver_Node_9,Passive_Rider_Node_8]
   + 12 x[Active_Driver_Node_9,Passive_Rider_Node_9]
Subject To
 Flow_Constraint_Active_Driver_Node_0:
   x[Active_Driver_Node_0,Passive_Rider_Node_0]
   + x[Active_Driver_Node_0,Passive_Rider_Node_1]
   + x[Active_Driver_Node_0,Passive_Rider_Node_2]
   + x[Active_Driver_Node_0,Passive_Rider_Node_3]
   + x[Active_Driver_Node_0,Passive_Rider_Node_4]
   + x[Active_Driver_Node_0,Passive_Rider_Node_5]
   + x[Active_Driver_Node_0,Passive_Rider_Node_6]
   + x[Active_Driver_Node_0,Passive_Rider_Node_7]
   + x[Active_Driver_Node_0,Passive_Rider_Node_8]
   + x[Active_Driver_Node_0,Passive_Rider_Node_9]
   + x_a[Active_Driver_Node_0] = 0.3
 Flow_Constraint_Active_Driver_Node_1:
   x[Active_Driver_Node_1,Passive_Rider_Node_0]
   + x[Active_Driver_Node_1,Passive_Rider_Node_1]
   + x[Active_Driver_Node_1,Passive_Rider_Node_2]
   + x[Active_Driver_Node_1,Passive_Rider_Node_3]
   + x[Active_Driver_Node_1,Passive_Rider_Node_4]
   + x[Active_Driver_Node_1,Passive_Rider_Node_5]
   + x[Active_Driver_Node_1,Passive_Rider_Node_6]
   + x[Active_Driver_Node_1,Passive_Rider_Node_7]
   + x[Active_Driver_Node_1,Passive_Rider_Node_8]
   + x[Active_Driver_Node_1,Passive_Rider_Node_9]
   + x_a[Active_Driver_Node_1] = 0.3
 Flow_Constraint_Active_Driver_Node_2:
   x[Active_Driver_Node_2,Passive_Rider_Node_0]
   + x[Active_Driver_Node_2,Passive_Rider_Node_1]
   + x[Active_Driver_Node_2,Passive_Rider_Node_2]
   + x[Active_Driver_Node_2,Passive_Rider_Node_3]
   + x[Active_Driver_Node_2,Passive_Rider_Node_4]
   + x[Active_Driver_Node_2,Passive_Rider_Node_5]
   + x[Active_Driver_Node_2,Passive_Rider_Node_6]
   + x[Active_Driver_Node_2,Passive_Rider_Node_7]
   + x[Active_Driver_Node_2,Passive_Rider_Node_8]
   + x[Active_Driver_Node_2,Passive_Rider_Node_9]
   + x_a[Active_Driver_Node_2] = 0.3
 Flow_Constraint_Active_Driver_Node_3:
   x[Active_Driver_Node_3,Passive_Rider_Node_0]
   + x[Active_Driver_Node_3,Passive_Rider_Node_1]
   + x[Active_Driver_Node_3,Passive_Rider_Node_2]
   + x[Active_Driver_Node_3,Passive_Rider_Node_3]
   + x[Active_Driver_Node_3,Passive_Rider_Node_4]
   + x[Active_Driver_Node_3,Passive_Rider_Node_5]
   + x[Active_Driver_Node_3,Passive_Rider_Node_6]
   + x[Active_Driver_Node_3,Passive_Rider_Node_7]
   + x[Active_Driver_Node_3,Passive_Rider_Node_8]
   + x[Active_Driver_Node_3,Passive_Rider_Node_9]
   + x_a[Active_Driver_Node_3] = 0.3
 Flow_Constraint_Active_Driver_Node_4:
   x[Active_Driver_Node_4,Passive_Rider_Node_0]
   + x[Active_Driver_Node_4,Passive_Rider_Node_1]
   + x[Active_Driver_Node_4,Passive_Rider_Node_2]
   + x[Active_Driver_Node_4,Passive_Rider_Node_3]
   + x[Active_Driver_Node_4,Passive_Rider_Node_4]
   + x[Active_Driver_Node_4,Passive_Rider_Node_5]
   + x[Active_Driver_Node_4,Passive_Rider_Node_6]
   + x[Active_Driver_Node_4,Passive_Rider_Node_7]
   + x[Active_Driver_Node_4,Passive_Rider_Node_8]
   + x[Active_Driver_Node_4,Passive_Rider_Node_9]
   + x_a[Active_Driver_Node_4] = 0.3
 Flow_Constraint_Active_Driver_Node_5:
   x[Active_Driver_Node_5,Passive_Rider_Node_0]
   + x[Active_Driver_Node_5,Passive_Rider_Node_1]
   + x[Active_Driver_Node_5,Passive_Rider_Node_2]
   + x[Active_Driver_Node_5,Passive_Rider_Node_3]
   + x[Active_Driver_Node_5,Passive_Rider_Node_4]
   + x[Active_Driver_Node_5,Passive_Rider_Node_5]
   + x[Active_Driver_Node_5,Passive_Rider_Node_6]
   + x[Active_Driver_Node_5,Passive_Rider_Node_7]
   + x[Active_Driver_Node_5,Passive_Rider_Node_8]
   + x[Active_Driver_Node_5,Passive_Rider_Node_9]
   + x_a[Active_Driver_Node_5] = 0.3
 Flow_Constraint_Active_Driver_Node_6:
   x[Active_Driver_Node_6,Passive_Rider_Node_0]
   + x[Active_Driver_Node_6,Passive_Rider_Node_1]
   + x[Active_Driver_Node_6,Passive_Rider_Node_2]
   + x[Active_Driver_Node_6,Passive_Rider_Node_3]
   + x[Active_Driver_Node_6,Passive_Rider_Node_4]
   + x[Active_Driver_Node_6,Passive_Rider_Node_5]
   + x[Active_Driver_Node_6,Passive_Rider_Node_6]
   + x[Active_Driver_Node_6,Passive_Rider_Node_7]
   + x[Active_Driver_Node_6,Passive_Rider_Node_8]
   + x[Active_Driver_Node_6,Passive_Rider_Node_9]
   + x_a[Active_Driver_Node_6] = 0.3
 Flow_Constraint_Active_Driver_Node_7:
   x[Active_Driver_Node_7,Passive_Rider_Node_0]
   + x[Active_Driver_Node_7,Passive_Rider_Node_1]
   + x[Active_Driver_Node_7,Passive_Rider_Node_2]
   + x[Active_Driver_Node_7,Passive_Rider_Node_3]
   + x[Active_Driver_Node_7,Passive_Rider_Node_4]
   + x[Active_Driver_Node_7,Passive_Rider_Node_5]
   + x[Active_Driver_Node_7,Passive_Rider_Node_6]
   + x[Active_Driver_Node_7,Passive_Rider_Node_7]
   + x[Active_Driver_Node_7,Passive_Rider_Node_8]
   + x[Active_Driver_Node_7,Passive_Rider_Node_9]
   + x_a[Active_Driver_Node_7] = 0.3
 Flow_Constraint_Active_Driver_Node_8:
   x[Active_Driver_Node_8,Passive_Rider_Node_0]
   + x[Active_Driver_Node_8,Passive_Rider_Node_1]
   + x[Active_Driver_Node_8,Passive_Rider_Node_2]
   + x[Active_Driver_Node_8,Passive_Rider_Node_3]
   + x[Active_Driver_Node_8,Passive_Rider_Node_4]
   + x[Active_Driver_Node_8,Passive_Rider_Node_5]
   + x[Active_Driver_Node_8,Passive_Rider_Node_6]
   + x[Active_Driver_Node_8,Passive_Rider_Node_7]
   + x[Active_Driver_Node_8,Passive_Rider_Node_8]
   + x[Active_Driver_Node_8,Passive_Rider_Node_9]
   + x_a[Active_Driver_Node_8] = 0.3
 Flow_Constraint_Active_Driver_Node_9:
   x[Active_Driver_Node_9,Passive_Rider_Node_0]
   + x[Active_Driver_Node_9,Passive_Rider_Node_1]
   + x[Active_Driver_Node_9,Passive_Rider_Node_2]
   + x[Active_Driver_Node_9,Passive_Rider_Node_3]
   + x[Active_Driver_Node_9,Passive_Rider_Node_4]
   + x[Active_Driver_Node_9,Passive_Rider_Node_5]
   + x[Active_Driver_Node_9,Passive_Rider_Node_6]
   + x[Active_Driver_Node_9,Passive_Rider_Node_7]
   + x[Active_Driver_Node_9,Passive_Rider_Node_8]
   + x[Active_Driver_Node_9,Passive_Rider_Node_9]
   + x_a[Active_Driver_Node_9] = 0.3
 Abandonment_Constraint_Active_Driver_Node_0_Passive_Rider_Node_0:
   0.2 x[Active_Driver_Node_0,Passive_Rider_Node_0]
   - 0.4 x_a[Active_Driver_Node_0] <= 0
 Abandonment_Constraint_Active_Driver_Node_0_Passive_Rider_Node_1:
   0.2 x[Active_Driver_Node_0,Passive_Rider_Node_1]
   - 0.4 x_a[Active_Driver_Node_0] <= 0
 Abandonment_Constraint_Active_Driver_Node_0_Passive_Rider_Node_2:
   0.2 x[Active_Driver_Node_0,Passive_Rider_Node_2]
   - 0.4 x_a[Active_Driver_Node_0] <= 0
 Abandonment_Constraint_Active_Driver_Node_0_Passive_Rider_Node_3:
   0.2 x[Active_Driver_Node_0,Passive_Rider_Node_3]
   - 0.4 x_a[Active_Driver_Node_0] <= 0
 Abandonment_Constraint_Active_Driver_Node_0_Passive_Rider_Node_4:
   0.2 x[Active_Driver_Node_0,Passive_Rider_Node_4]
   - 0.4 x_a[Active_Driver_Node_0] <= 0
 Abandonment_Constraint_Active_Driver_Node_0_Passive_Rider_Node_5:
   0.2 x[Active_Driver_Node_0,Passive_Rider_Node_5]
   - 0.4 x_a[Active_Driver_Node_0] <= 0
 Abandonment_Constraint_Active_Driver_Node_0_Passive_Rider_Node_6:
   0.2 x[Active_Driver_Node_0,Passive_Rider_Node_6]
   - 0.4 x_a[Active_Driver_Node_0] <= 0
 Abandonment_Constraint_Active_Driver_Node_0_Passive_Rider_Node_7:
   0.2 x[Active_Driver_Node_0,Passive_Rider_Node_7]
   - 0.4 x_a[Active_Driver_Node_0] <= 0
 Abandonment_Constraint_Active_Driver_Node_0_Passive_Rider_Node_8:
   0.2 x[Active_Driver_Node_0,Passive_Rider_Node_8]
   - 0.4 x_a[Active_Driver_Node_0] <= 0
 Abandonment_Constraint_Active_Driver_Node_0_Passive_Rider_Node_9:
   0.2 x[Active_Driver_Node_0,Passive_Rider_Node_9]
   - 0.4 x_a[Active_Driver_Node_0] <= 0
 Abandonment_Constraint_Active_Driver_Node_1_Passive_Rider_Node_0:
   0.2 x[Active_Driver_Node_1,Passive_Rider_Node_0]
   - 0.4 x_a[Active_Driver_Node_1] <= 0
 Abandonment_Constraint_Active_Driver_Node_1_Passive_Rider_Node_1:
   0.2 x[Active_Driver_Node_1,Passive_Rider_Node_1]
   - 0.4 x_a[Active_Driver_Node_1] <= 0
 Abandonment_Constraint_Active_Driver_Node_1_Passive_Rider_Node_2:
   0.2 x[Active_Driver_Node_1,Passive_Rider_Node_2]
   - 0.4 x_a[Active_Driver_Node_1] <= 0
 Abandonment_Constraint_Active_Driver_Node_1_Passive_Rider_Node_3:
   0.2 x[Active_Driver_Node_1,Passive_Rider_Node_3]
   - 0.4 x_a[Active_Driver_Node_1] <= 0
 Abandonment_Constraint_Active_Driver_Node_1_Passive_Rider_Node_4:
   0.2 x[Active_Driver_Node_1,Passive_Rider_Node_4]
   - 0.4 x_a[Active_Driver_Node_1] <= 0
 Abandonment_Constraint_Active_Driver_Node_1_Passive_Rider_Node_5:
   0.2 x[Active_Driver_Node_1,Passive_Rider_Node_5]
   - 0.4 x_a[Active_Driver_Node_1] <= 0
 Abandonment_Constraint_Active_Driver_Node_1_Passive_Rider_Node_6:
   0.2 x[Active_Driver_Node_1,Passive_Rider_Node_6]
   - 0.4 x_a[Active_Driver_Node_1] <= 0
 Abandonment_Constraint_Active_Driver_Node_1_Passive_Rider_Node_7:
   0.2 x[Active_Driver_Node_1,Passive_Rider_Node_7]
   - 0.4 x_a[Active_Driver_Node_1] <= 0
 Abandonment_Constraint_Active_Driver_Node_1_Passive_Rider_Node_8:
   0.2 x[Active_Driver_Node_1,Passive_Rider_Node_8]
   - 0.4 x_a[Active_Driver_Node_1] <= 0
 Abandonment_Constraint_Active_Driver_Node_1_Passive_Rider_Node_9:
   0.2 x[Active_Driver_Node_1,Passive_Rider_Node_9]
   - 0.4 x_a[Active_Driver_Node_1] <= 0
 Abandonment_Constraint_Active_Driver_Node_2_Passive_Rider_Node_0:
   0.2 x[Active_Driver_Node_2,Passive_Rider_Node_0]
   - 0.4 x_a[Active_Driver_Node_2] <= 0
 Abandonment_Constraint_Active_Driver_Node_2_Passive_Rider_Node_1:
   0.2 x[Active_Driver_Node_2,Passive_Rider_Node_1]
   - 0.4 x_a[Active_Driver_Node_2] <= 0
 Abandonment_Constraint_Active_Driver_Node_2_Passive_Rider_Node_2:
   0.2 x[Active_Driver_Node_2,Passive_Rider_Node_2]
   - 0.4 x_a[Active_Driver_Node_2] <= 0
 Abandonment_Constraint_Active_Driver_Node_2_Passive_Rider_Node_3:
   0.2 x[Active_Driver_Node_2,Passive_Rider_Node_3]
   - 0.4 x_a[Active_Driver_Node_2] <= 0
 Abandonment_Constraint_Active_Driver_Node_2_Passive_Rider_Node_4:
   0.2 x[Active_Driver_Node_2,Passive_Rider_Node_4]
   - 0.4 x_a[Active_Driver_Node_2] <= 0
 Abandonment_Constraint_Active_Driver_Node_2_Passive_Rider_Node_5:
   0.2 x[Active_Driver_Node_2,Passive_Rider_Node_5]
   - 0.4 x_a[Active_Driver_Node_2] <= 0
 Abandonment_Constraint_Active_Driver_Node_2_Passive_Rider_Node_6:
   0.2 x[Active_Driver_Node_2,Passive_Rider_Node_6]
   - 0.4 x_a[Active_Driver_Node_2] <= 0
 Abandonment_Constraint_Active_Driver_Node_2_Passive_Rider_Node_7:
   0.2 x[Active_Driver_Node_2,Passive_Rider_Node_7]
   - 0.4 x_a[Active_Driver_Node_2] <= 0
 Abandonment_Constraint_Active_Driver_Node_2_Passive_Rider_Node_8:
   0.2 x[Active_Driver_Node_2,Passive_Rider_Node_8]
   - 0.4 x_a[Active_Driver_Node_2] <= 0
 Abandonment_Constraint_Active_Driver_Node_2_Passive_Rider_Node_9:
   0.2 x[Active_Driver_Node_2,Passive_Rider_Node_9]
   - 0.4 x_a[Active_Driver_Node_2] <= 0
 Abandonment_Constraint_Active_Driver_Node_3_Passive_Rider_Node_0:
   0.2 x[Active_Driver_Node_3,Passive_Rider_Node_0]
   - 0.4 x_a[Active_Driver_Node_3] <= 0
 Abandonment_Constraint_Active_Driver_Node_3_Passive_Rider_Node_1:
   0.2 x[Active_Driver_Node_3,Passive_Rider_Node_1]
   - 0.4 x_a[Active_Driver_Node_3] <= 0
 Abandonment_Constraint_Active_Driver_Node_3_Passive_Rider_Node_2:
   0.2 x[Active_Driver_Node_3,Passive_Rider_Node_2]
   - 0.4 x_a[Active_Driver_Node_3] <= 0
 Abandonment_Constraint_Active_Driver_Node_3_Passive_Rider_Node_3:
   0.2 x[Active_Driver_Node_3,Passive_Rider_Node_3]
   - 0.4 x_a[Active_Driver_Node_3] <= 0
 Abandonment_Constraint_Active_Driver_Node_3_Passive_Rider_Node_4:
   0.2 x[Active_Driver_Node_3,Passive_Rider_Node_4]
   - 0.4 x_a[Active_Driver_Node_3] <= 0
 Abandonment_Constraint_Active_Driver_Node_3_Passive_Rider_Node_5:
   0.2 x[Active_Driver_Node_3,Passive_Rider_Node_5]
   - 0.4 x_a[Active_Driver_Node_3] <= 0
 Abandonment_Constraint_Active_Driver_Node_3_Passive_Rider_Node_6:
   0.2 x[Active_Driver_Node_3,Passive_Rider_Node_6]
   - 0.4 x_a[Active_Driver_Node_3] <= 0
 Abandonment_Constraint_Active_Driver_Node_3_Passive_Rider_Node_7:
   0.2 x[Active_Driver_Node_3,Passive_Rider_Node_7]
   - 0.4 x_a[Active_Driver_Node_3] <= 0
 Abandonment_Constraint_Active_Driver_Node_3_Passive_Rider_Node_8:
   0.2 x[Active_Driver_Node_3,Passive_Rider_Node_8]
   - 0.4 x_a[Active_Driver_Node_3] <= 0
 Abandonment_Constraint_Active_Driver_Node_3_Passive_Rider_Node_9:
   0.2 x[Active_Driver_Node_3,Passive_Rider_Node_9]
   - 0.4 x_a[Active_Driver_Node_3] <= 0
 Abandonment_Constraint_Active_Driver_Node_4_Passive_Rider_Node_0:
   0.2 x[Active_Driver_Node_4,Passive_Rider_Node_0]
   - 0.4 x_a[Active_Driver_Node_4] <= 0
 Abandonment_Constraint_Active_Driver_Node_4_Passive_Rider_Node_1:
   0.2 x[Active_Driver_Node_4,Passive_Rider_Node_1]
   - 0.4 x_a[Active_Driver_Node_4] <= 0
 Abandonment_Constraint_Active_Driver_Node_4_Passive_Rider_Node_2:
   0.2 x[Active_Driver_Node_4,Passive_Rider_Node_2]
   - 0.4 x_a[Active_Driver_Node_4] <= 0
 Abandonment_Constraint_Active_Driver_Node_4_Passive_Rider_Node_3:
   0.2 x[Active_Driver_Node_4,Passive_Rider_Node_3]
   - 0.4 x_a[Active_Driver_Node_4] <= 0
 Abandonment_Constraint_Active_Driver_Node_4_Passive_Rider_Node_4:
   0.2 x[Active_Driver_Node_4,Passive_Rider_Node_4]
   - 0.4 x_a[Active_Driver_Node_4] <= 0
 Abandonment_Constraint_Active_Driver_Node_4_Passive_Rider_Node_5:
   0.2 x[Active_Driver_Node_4,Passive_Rider_Node_5]
   - 0.4 x_a[Active_Driver_Node_4] <= 0
 Abandonment_Constraint_Active_Driver_Node_4_Passive_Rider_Node_6:
   0.2 x[Active_Driver_Node_4,Passive_Rider_Node_6]
   - 0.4 x_a[Active_Driver_Node_4] <= 0
 Abandonment_Constraint_Active_Driver_Node_4_Passive_Rider_Node_7:
   0.2 x[Active_Driver_Node_4,Passive_Rider_Node_7]
   - 0.4 x_a[Active_Driver_Node_4] <= 0
 Abandonment_Constraint_Active_Driver_Node_4_Passive_Rider_Node_8:
   0.2 x[Active_Driver_Node_4,Passive_Rider_Node_8]
   - 0.4 x_a[Active_Driver_Node_4] <= 0
 Abandonment_Constraint_Active_Driver_Node_4_Passive_Rider_Node_9:
   0.2 x[Active_Driver_Node_4,Passive_Rider_Node_9]
   - 0.4 x_a[Active_Driver_Node_4] <= 0
 Abandonment_Constraint_Active_Driver_Node_5_Passive_Rider_Node_0:
   0.2 x[Active_Driver_Node_5,Passive_Rider_Node_0]
   - 0.4 x_a[Active_Driver_Node_5] <= 0
 Abandonment_Constraint_Active_Driver_Node_5_Passive_Rider_Node_1:
   0.2 x[Active_Driver_Node_5,Passive_Rider_Node_1]
   - 0.4 x_a[Active_Driver_Node_5] <= 0
 Abandonment_Constraint_Active_Driver_Node_5_Passive_Rider_Node_2:
   0.2 x[Active_Driver_Node_5,Passive_Rider_Node_2]
   - 0.4 x_a[Active_Driver_Node_5] <= 0
 Abandonment_Constraint_Active_Driver_Node_5_Passive_Rider_Node_3:
   0.2 x[Active_Driver_Node_5,Passive_Rider_Node_3]
   - 0.4 x_a[Active_Driver_Node_5] <= 0
 Abandonment_Constraint_Active_Driver_Node_5_Passive_Rider_Node_4:
   0.2 x[Active_Driver_Node_5,Passive_Rider_Node_4]
   - 0.4 x_a[Active_Driver_Node_5] <= 0
 Abandonment_Constraint_Active_Driver_Node_5_Passive_Rider_Node_5:
   0.2 x[Active_Driver_Node_5,Passive_Rider_Node_5]
   - 0.4 x_a[Active_Driver_Node_5] <= 0
 Abandonment_Constraint_Active_Driver_Node_5_Passive_Rider_Node_6:
   0.2 x[Active_Driver_Node_5,Passive_Rider_Node_6]
   - 0.4 x_a[Active_Driver_Node_5] <= 0
 Abandonment_Constraint_Active_Driver_Node_5_Passive_Rider_Node_7:
   0.2 x[Active_Driver_Node_5,Passive_Rider_Node_7]
   - 0.4 x_a[Active_Driver_Node_5] <= 0
 Abandonment_Constraint_Active_Driver_Node_5_Passive_Rider_Node_8:
   0.2 x[Active_Driver_Node_5,Passive_Rider_Node_8]
   - 0.4 x_a[Active_Driver_Node_5] <= 0
 Abandonment_Constraint_Active_Driver_Node_5_Passive_Rider_Node_9:
   0.2 x[Active_Driver_Node_5,Passive_Rider_Node_9]
   - 0.4 x_a[Active_Driver_Node_5] <= 0
 Abandonment_Constraint_Active_Driver_Node_6_Passive_Rider_Node_0:
   0.2 x[Active_Driver_Node_6,Passive_Rider_Node_0]
   - 0.4 x_a[Active_Driver_Node_6] <= 0
 Abandonment_Constraint_Active_Driver_Node_6_Passive_Rider_Node_1:
   0.2 x[Active_Driver_Node_6,Passive_Rider_Node_1]
   - 0.4 x_a[Active_Driver_Node_6] <= 0
 Abandonment_Constraint_Active_Driver_Node_6_Passive_Rider_Node_2:
   0.2 x[Active_Driver_Node_6,Passive_Rider_Node_2]
   - 0.4 x_a[Active_Driver_Node_6] <= 0
 Abandonment_Constraint_Active_Driver_Node_6_Passive_Rider_Node_3:
   0.2 x[Active_Driver_Node_6,Passive_Rider_Node_3]
   - 0.4 x_a[Active_Driver_Node_6] <= 0
 Abandonment_Constraint_Active_Driver_Node_6_Passive_Rider_Node_4:
   0.2 x[Active_Driver_Node_6,Passive_Rider_Node_4]
   - 0.4 x_a[Active_Driver_Node_6] <= 0
 Abandonment_Constraint_Active_Driver_Node_6_Passive_Rider_Node_5:
   0.2 x[Active_Driver_Node_6,Passive_Rider_Node_5]
   - 0.4 x_a[Active_Driver_Node_6] <= 0
 Abandonment_Constraint_Active_Driver_Node_6_Passive_Rider_Node_6:
   0.2 x[Active_Driver_Node_6,Passive_Rider_Node_6]
   - 0.4 x_a[Active_Driver_Node_6] <= 0
 Abandonment_Constraint_Active_Driver_Node_6_Passive_Rider_Node_7:
   0.2 x[Active_Driver_Node_6,Passive_Rider_Node_7]
   - 0.4 x_a[Active_Driver_Node_6] <= 0
 Abandonment_Constraint_Active_Driver_Node_6_Passive_Rider_Node_8:
   0.2 x[Active_Driver_Node_6,Passive_Rider_Node_8]
   - 0.4 x_a[Active_Driver_Node_6] <= 0
 Abandonment_Constraint_Active_Driver_Node_6_Passive_Rider_Node_9:
   0.2 x[Active_Driver_Node_6,Passive_Rider_Node_9]
   - 0.4 x_a[Active_Driver_Node_6] <= 0
 Abandonment_Constraint_Active_Driver_Node_7_Passive_Rider_Node_0:
   0.2 x[Active_Driver_Node_7,Passive_Rider_Node_0]
   - 0.4 x_a[Active_Driver_Node_7] <= 0
 Abandonment_Constraint_Active_Driver_Node_7_Passive_Rider_Node_1:
   0.2 x[Active_Driver_Node_7,Passive_Rider_Node_1]
   - 0.4 x_a[Active_Driver_Node_7] <= 0
 Abandonment_Constraint_Active_Driver_Node_7_Passive_Rider_Node_2:
   0.2 x[Active_Driver_Node_7,Passive_Rider_Node_2]
   - 0.4 x_a[Active_Driver_Node_7] <= 0
 Abandonment_Constraint_Active_Driver_Node_7_Passive_Rider_Node_3:
   0.2 x[Active_Driver_Node_7,Passive_Rider_Node_3]
   - 0.4 x_a[Active_Driver_Node_7] <= 0
 Abandonment_Constraint_Active_Driver_Node_7_Passive_Rider_Node_4:
   0.2 x[Active_Driver_Node_7,Passive_Rider_Node_4]
   - 0.4 x_a[Active_Driver_Node_7] <= 0
 Abandonment_Constraint_Active_Driver_Node_7_Passive_Rider_Node_5:
   0.2 x[Active_Driver_Node_7,Passive_Rider_Node_5]
   - 0.4 x_a[Active_Driver_Node_7] <= 0
 Abandonment_Constraint_Active_Driver_Node_7_Passive_Rider_Node_6:
   0.2 x[Active_Driver_Node_7,Passive_Rider_Node_6]
   - 0.4 x_a[Active_Driver_Node_7] <= 0
 Abandonment_Constraint_Active_Driver_Node_7_Passive_Rider_Node_7:
   0.2 x[Active_Driver_Node_7,Passive_Rider_Node_7]
   - 0.4 x_a[Active_Driver_Node_7] <= 0
 Abandonment_Constraint_Active_Driver_Node_7_Passive_Rider_Node_8:
   0.2 x[Active_Driver_Node_7,Passive_Rider_Node_8]
   - 0.4 x_a[Active_Driver_Node_7] <= 0
 Abandonment_Constraint_Active_Driver_Node_7_Passive_Rider_Node_9:
   0.2 x[Active_Driver_Node_7,Passive_Rider_Node_9]
   - 0.4 x_a[Active_Driver_Node_7] <= 0
 Abandonment_Constraint_Active_Driver_Node_8_Passive_Rider_Node_0:
   0.2 x[Active_Driver_Node_8,Passive_Rider_Node_0]
   - 0.4 x_a[Active_Driver_Node_8] <= 0
 Abandonment_Constraint_Active_Driver_Node_8_Passive_Rider_Node_1:
   0.2 x[Active_Driver_Node_8,Passive_Rider_Node_1]
   - 0.4 x_a[Active_Driver_Node_8] <= 0
 Abandonment_Constraint_Active_Driver_Node_8_Passive_Rider_Node_2:
   0.2 x[Active_Driver_Node_8,Passive_Rider_Node_2]
   - 0.4 x_a[Active_Driver_Node_8] <= 0
 Abandonment_Constraint_Active_Driver_Node_8_Passive_Rider_Node_3:
   0.2 x[Active_Driver_Node_8,Passive_Rider_Node_3]
   - 0.4 x_a[Active_Driver_Node_8] <= 0
 Abandonment_Constraint_Active_Driver_Node_8_Passive_Rider_Node_4:
   0.2 x[Active_Driver_Node_8,Passive_Rider_Node_4]
   - 0.4 x_a[Active_Driver_Node_8] <= 0
 Abandonment_Constraint_Active_Driver_Node_8_Passive_Rider_Node_5:
   0.2 x[Active_Driver_Node_8,Passive_Rider_Node_5]
   - 0.4 x_a[Active_Driver_Node_8] <= 0
 Abandonment_Constraint_Active_Driver_Node_8_Passive_Rider_Node_6:
   0.2 x[Active_Driver_Node_8,Passive_Rider_Node_6]
   - 0.4 x_a[Active_Driver_Node_8] <= 0
 Abandonment_Constraint_Active_Driver_Node_8_Passive_Rider_Node_7:
   0.2 x[Active_Driver_Node_8,Passive_Rider_Node_7]
   - 0.4 x_a[Active_Driver_Node_8] <= 0
 Abandonment_Constraint_Active_Driver_Node_8_Passive_Rider_Node_8:
   0.2 x[Active_Driver_Node_8,Passive_Rider_Node_8]
   - 0.4 x_a[Active_Driver_Node_8] <= 0
 Abandonment_Constraint_Active_Driver_Node_8_Passive_Rider_Node_9:
   0.2 x[Active_Driver_Node_8,Passive_Rider_Node_9]
   - 0.4 x_a[Active_Driver_Node_8] <= 0
 Abandonment_Constraint_Active_Driver_Node_9_Passive_Rider_Node_0:
   0.2 x[Active_Driver_Node_9,Passive_Rider_Node_0]
   - 0.4 x_a[Active_Driver_Node_9] <= 0
 Abandonment_Constraint_Active_Driver_Node_9_Passive_Rider_Node_1:
   0.2 x[Active_Driver_Node_9,Passive_Rider_Node_1]
   - 0.4 x_a[Active_Driver_Node_9] <= 0
 Abandonment_Constraint_Active_Driver_Node_9_Passive_Rider_Node_2:
   0.2 x[Active_Driver_Node_9,Passive_Rider_Node_2]
   - 0.4 x_a[Active_Driver_Node_9] <= 0
 Abandonment_Constraint_Active_Driver_Node_9_Passive_Rider_Node_3:
   0.2 x[Active_Driver_Node_9,Passive_Rider_Node_3]
   - 0.4 x_a[Active_Driver_Node_9] <= 0
 Abandonment_Constraint_Active_Driver_Node_9_Passive_Rider_Node_4:
   0.2 x[Active_Driver_Node_9,Passive_Rider_Node_4]
   - 0.4 x_a[Active_Driver_Node_9] <= 0
 Abandonment_Constraint_Active_Driver_Node_9_Passive_Rider_Node_5:
   0.2 x[Active_Driver_Node_9,Passive_Rider_Node_5]
   - 0.4 x_a[Active_Driver_Node_9] <= 0
 Abandonment_Constraint_Active_Driver_Node_9_Passive_Rider_Node_6:
   0.2 x[Active_Driver_Node_9,Passive_Rider_Node_6]
   - 0.4 x_a[Active_Driver_Node_9] <= 0
 Abandonment_Constraint_Active_Driver_Node_9_Passive_Rider_Node_7:
   0.2 x[Active_Driver_Node_9,Passive_Rider_Node_7]
   - 0.4 x_a[Active_Driver_Node_9] <= 0
 Abandonment_Constraint_Active_Driver_Node_9_Passive_Rider_Node_8:
   0.2 x[Active_Driver_Node_9,Passive_Rider_Node_8]
   - 0.4 x_a[Active_Driver_Node_9] <= 0
 Abandonment_Constraint_Active_Driver_Node_9_Passive_Rider_Node_9:
   0.2 x[Active_Driver_Node_9,Passive_Rider_Node_9]
   - 0.4 x_a[Active_Driver_Node_9] <= 0
Bounds
End
